200
1000
800
793
791
785
783
783
779
774
773
771
770
770
765
765
764
763
755
754
749
742
740
737
734
732
732
721
718
717
715
715
712
706
706
700
694
693
689
688
687
687
682
679
676
674
672
660
657
645
639
639
631
630
627
624
624
622
620
617
615
601
600
598
595
593
582
579
579
570
566
566
565
561
560
559
555
552
551
550
546
544
544
527
525
525
522
522
511
497
496
492
487
486
485
483
479
479
475
474
471
457
451
448
445
444
442
442
433
431
428
422
418
416
415
414
413
400
400
393
388
388
384
384
379
378
375
374
370
365
352
348
348
347
345
336
336
330
329
325
323
322
322
319
317
315
311
303
302
299
294
285
281
270
269
268
267
263
262
262
261
249
247
243
237
236
235
231
229
227
227
225
217
212
212
204
202
187
187
185
181
181
180
179
178
169
158
157
153
146
139
138
138
137
132
125
122
118
117
114
114
100
